c Pigeonhole Principle (3 pigeons, 2 holes) - UNSAT
c Variables:
c 1: p1_h1, 2: p1_h2
c 3: p2_h1, 4: p2_h2
c 5: p3_h1, 6: p3_h2
p cnf 6 9
1 2 0
3 4 0
5 6 0
-1 -3 0
-1 -5 0
-3 -5 0
-2 -4 0
-2 -6 0
-4 -6 0
